c Generated with `cnfgen`
c (C) 2012-2018 Massimo Lauria <lauria.massimo@gmail.com>
c https://massimolauria.net/cnfgen
c
c COMMAND LINE: cnfgen tseitin --gnd 80 5 --charge randomodd
c
p cnf 200 1280
1 2 3 4 5 0
1 2 3 -4 -5 0
1 2 -3 4 -5 0
1 2 -3 -4 5 0
1 -2 3 4 -5 0
1 -2 3 -4 5 0
1 -2 -3 4 5 0
1 -2 -3 -4 -5 0
-1 2 3 4 -5 0
-1 2 3 -4 5 0
-1 2 -3 4 5 0
-1 2 -3 -4 -5 0
-1 -2 3 4 5 0
-1 -2 3 -4 -5 0
-1 -2 -3 4 -5 0
-1 -2 -3 -4 5 0
6 7 8 9 10 0
6 7 8 -9 -10 0
6 7 -8 9 -10 0
6 7 -8 -9 10 0
6 -7 8 9 -10 0
6 -7 8 -9 10 0
6 -7 -8 9 10 0
6 -7 -8 -9 -10 0
-6 7 8 9 -10 0
-6 7 8 -9 10 0
-6 7 -8 9 10 0
-6 7 -8 -9 -10 0
-6 -7 8 9 10 0
-6 -7 8 -9 -10 0
-6 -7 -8 9 -10 0
-6 -7 -8 -9 10 0
11 12 13 14 -15 0
11 12 13 -14 15 0
11 12 -13 14 15 0
11 12 -13 -14 -15 0
11 -12 13 14 15 0
11 -12 13 -14 -15 0
11 -12 -13 14 -15 0
11 -12 -13 -14 15 0
-11 12 13 14 15 0
-11 12 13 -14 -15 0
-11 12 -13 14 -15 0
-11 12 -13 -14 15 0
-11 -12 13 14 -15 0
-11 -12 13 -14 15 0
-11 -12 -13 14 15 0
-11 -12 -13 -14 -15 0
16 17 18 19 20 0
16 17 18 -19 -20 0
16 17 -18 19 -20 0
16 17 -18 -19 20 0
16 -17 18 19 -20 0
16 -17 18 -19 20 0
16 -17 -18 19 20 0
16 -17 -18 -19 -20 0
-16 17 18 19 -20 0
-16 17 18 -19 20 0
-16 17 -18 19 20 0
-16 17 -18 -19 -20 0
-16 -17 18 19 20 0
-16 -17 18 -19 -20 0
-16 -17 -18 19 -20 0
-16 -17 -18 -19 20 0
21 22 23 24 -25 0
21 22 23 -24 25 0
21 22 -23 24 25 0
21 22 -23 -24 -25 0
21 -22 23 24 25 0
21 -22 23 -24 -25 0
21 -22 -23 24 -25 0
21 -22 -23 -24 25 0
-21 22 23 24 25 0
-21 22 23 -24 -25 0
-21 22 -23 24 -25 0
-21 22 -23 -24 25 0
-21 -22 23 24 -25 0
-21 -22 23 -24 25 0
-21 -22 -23 24 25 0
-21 -22 -23 -24 -25 0
26 27 28 29 -30 0
26 27 28 -29 30 0
26 27 -28 29 30 0
26 27 -28 -29 -30 0
26 -27 28 29 30 0
26 -27 28 -29 -30 0
26 -27 -28 29 -30 0
26 -27 -28 -29 30 0
-26 27 28 29 30 0
-26 27 28 -29 -30 0
-26 27 -28 29 -30 0
-26 27 -28 -29 30 0
-26 -27 28 29 -30 0
-26 -27 28 -29 30 0
-26 -27 -28 29 30 0
-26 -27 -28 -29 -30 0
6 31 32 33 -34 0
6 31 32 -33 34 0
6 31 -32 33 34 0
6 31 -32 -33 -34 0
6 -31 32 33 34 0
6 -31 32 -33 -34 0
6 -31 -32 33 -34 0
6 -31 -32 -33 34 0
-6 31 32 33 34 0
-6 31 32 -33 -34 0
-6 31 -32 33 -34 0
-6 31 -32 -33 34 0
-6 -31 32 33 -34 0
-6 -31 32 -33 34 0
-6 -31 -32 33 34 0
-6 -31 -32 -33 -34 0
35 36 37 38 39 0
35 36 37 -38 -39 0
35 36 -37 38 -39 0
35 36 -37 -38 39 0
35 -36 37 38 -39 0
35 -36 37 -38 39 0
35 -36 -37 38 39 0
35 -36 -37 -38 -39 0
-35 36 37 38 -39 0
-35 36 37 -38 39 0
-35 36 -37 38 39 0
-35 36 -37 -38 -39 0
-35 -36 37 38 39 0
-35 -36 37 -38 -39 0
-35 -36 -37 38 -39 0
-35 -36 -37 -38 39 0
21 40 41 42 -43 0
21 40 41 -42 43 0
21 40 -41 42 43 0
21 40 -41 -42 -43 0
21 -40 41 42 43 0
21 -40 41 -42 -43 0
21 -40 -41 42 -43 0
21 -40 -41 -42 43 0
-21 40 41 42 43 0
-21 40 41 -42 -43 0
-21 40 -41 42 -43 0
-21 40 -41 -42 43 0
-21 -40 41 42 -43 0
-21 -40 41 -42 43 0
-21 -40 -41 42 43 0
-21 -40 -41 -42 -43 0
1 16 44 45 -46 0
1 16 44 -45 46 0
1 16 -44 45 46 0
1 16 -44 -45 -46 0
1 -16 44 45 46 0
1 -16 44 -45 -46 0
1 -16 -44 45 -46 0
1 -16 -44 -45 46 0
-1 16 44 45 46 0
-1 16 44 -45 -46 0
-1 16 -44 45 -46 0
-1 16 -44 -45 46 0
-1 -16 44 45 -46 0
-1 -16 44 -45 46 0
-1 -16 -44 45 46 0
-1 -16 -44 -45 -46 0
31 47 48 49 50 0
31 47 48 -49 -50 0
31 47 -48 49 -50 0
31 47 -48 -49 50 0
31 -47 48 49 -50 0
31 -47 48 -49 50 0
31 -47 -48 49 50 0
31 -47 -48 -49 -50 0
-31 47 48 49 -50 0
-31 47 48 -49 50 0
-31 47 -48 49 50 0
-31 47 -48 -49 -50 0
-31 -47 48 49 50 0
-31 -47 48 -49 -50 0
-31 -47 -48 49 -50 0
-31 -47 -48 -49 50 0
11 51 52 53 54 0
11 51 52 -53 -54 0
11 51 -52 53 -54 0
11 51 -52 -53 54 0
11 -51 52 53 -54 0
11 -51 52 -53 54 0
11 -51 -52 53 54 0
11 -51 -52 -53 -54 0
-11 51 52 53 -54 0
-11 51 52 -53 54 0
-11 51 -52 53 54 0
-11 51 -52 -53 -54 0
-11 -51 52 53 54 0
-11 -51 52 -53 -54 0
-11 -51 -52 53 -54 0
-11 -51 -52 -53 54 0
40 55 56 57 -58 0
40 55 56 -57 58 0
40 55 -56 57 58 0
40 55 -56 -57 -58 0
40 -55 56 57 58 0
40 -55 56 -57 -58 0
40 -55 -56 57 -58 0
40 -55 -56 -57 58 0
-40 55 56 57 58 0
-40 55 56 -57 -58 0
-40 55 -56 57 -58 0
-40 55 -56 -57 58 0
-40 -55 56 57 -58 0
-40 -55 56 -57 58 0
-40 -55 -56 57 58 0
-40 -55 -56 -57 -58 0
59 60 61 62 -63 0
59 60 61 -62 63 0
59 60 -61 62 63 0
59 60 -61 -62 -63 0
59 -60 61 62 63 0
59 -60 61 -62 -63 0
59 -60 -61 62 -63 0
59 -60 -61 -62 63 0
-59 60 61 62 63 0
-59 60 61 -62 -63 0
-59 60 -61 62 -63 0
-59 60 -61 -62 63 0
-59 -60 61 62 -63 0
-59 -60 61 -62 63 0
-59 -60 -61 62 63 0
-59 -60 -61 -62 -63 0
26 64 65 66 67 0
26 64 65 -66 -67 0
26 64 -65 66 -67 0
26 64 -65 -66 67 0
26 -64 65 66 -67 0
26 -64 65 -66 67 0
26 -64 -65 66 67 0
26 -64 -65 -66 -67 0
-26 64 65 66 -67 0
-26 64 65 -66 67 0
-26 64 -65 66 67 0
-26 64 -65 -66 -67 0
-26 -64 65 66 67 0
-26 -64 65 -66 -67 0
-26 -64 -65 66 -67 0
-26 -64 -65 -66 67 0
41 44 68 69 -70 0
41 44 68 -69 70 0
41 44 -68 69 70 0
41 44 -68 -69 -70 0
41 -44 68 69 70 0
41 -44 68 -69 -70 0
41 -44 -68 69 -70 0
41 -44 -68 -69 70 0
-41 44 68 69 70 0
-41 44 68 -69 -70 0
-41 44 -68 69 -70 0
-41 44 -68 -69 70 0
-41 -44 68 69 -70 0
-41 -44 68 -69 70 0
-41 -44 -68 69 70 0
-41 -44 -68 -69 -70 0
17 22 35 45 -71 0
17 22 35 -45 71 0
17 22 -35 45 71 0
17 22 -35 -45 -71 0
17 -22 35 45 71 0
17 -22 35 -45 -71 0
17 -22 -35 45 -71 0
17 -22 -35 -45 71 0
-17 22 35 45 71 0
-17 22 35 -45 -71 0
-17 22 -35 45 -71 0
-17 22 -35 -45 71 0
-17 -22 35 45 -71 0
-17 -22 35 -45 71 0
-17 -22 -35 45 71 0
-17 -22 -35 -45 -71 0
27 72 73 74 75 0
27 72 73 -74 -75 0
27 72 -73 74 -75 0
27 72 -73 -74 75 0
27 -72 73 74 -75 0
27 -72 73 -74 75 0
27 -72 -73 74 75 0
27 -72 -73 -74 -75 0
-27 72 73 74 -75 0
-27 72 73 -74 75 0
-27 72 -73 74 75 0
-27 72 -73 -74 -75 0
-27 -72 73 74 75 0
-27 -72 73 -74 -75 0
-27 -72 -73 74 -75 0
-27 -72 -73 -74 75 0
76 77 78 79 -80 0
76 77 78 -79 80 0
76 77 -78 79 80 0
76 77 -78 -79 -80 0
76 -77 78 79 80 0
76 -77 78 -79 -80 0
76 -77 -78 79 -80 0
76 -77 -78 -79 80 0
-76 77 78 79 80 0
-76 77 78 -79 -80 0
-76 77 -78 79 -80 0
-76 77 -78 -79 80 0
-76 -77 78 79 -80 0
-76 -77 78 -79 80 0
-76 -77 -78 79 80 0
-76 -77 -78 -79 -80 0
12 32 59 81 82 0
12 32 59 -81 -82 0
12 32 -59 81 -82 0
12 32 -59 -81 82 0
12 -32 59 81 -82 0
12 -32 59 -81 82 0
12 -32 -59 81 82 0
12 -32 -59 -81 -82 0
-12 32 59 81 -82 0
-12 32 59 -81 82 0
-12 32 -59 81 82 0
-12 32 -59 -81 -82 0
-12 -32 59 81 82 0
-12 -32 59 -81 -82 0
-12 -32 -59 81 -82 0
-12 -32 -59 -81 82 0
76 83 84 85 -86 0
76 83 84 -85 86 0
76 83 -84 85 86 0
76 83 -84 -85 -86 0
76 -83 84 85 86 0
76 -83 84 -85 -86 0
76 -83 -84 85 -86 0
76 -83 -84 -85 86 0
-76 83 84 85 86 0
-76 83 84 -85 -86 0
-76 83 -84 85 -86 0
-76 83 -84 -85 86 0
-76 -83 84 85 -86 0
-76 -83 84 -85 86 0
-76 -83 -84 85 86 0
-76 -83 -84 -85 -86 0
87 88 89 90 -91 0
87 88 89 -90 91 0
87 88 -89 90 91 0
87 88 -89 -90 -91 0
87 -88 89 90 91 0
87 -88 89 -90 -91 0
87 -88 -89 90 -91 0
87 -88 -89 -90 91 0
-87 88 89 90 91 0
-87 88 89 -90 -91 0
-87 88 -89 90 -91 0
-87 88 -89 -90 91 0
-87 -88 89 90 -91 0
-87 -88 89 -90 91 0
-87 -88 -89 90 91 0
-87 -88 -89 -90 -91 0
92 93 94 95 -96 0
92 93 94 -95 96 0
92 93 -94 95 96 0
92 93 -94 -95 -96 0
92 -93 94 95 96 0
92 -93 94 -95 -96 0
92 -93 -94 95 -96 0
92 -93 -94 -95 96 0
-92 93 94 95 96 0
-92 93 94 -95 -96 0
-92 93 -94 95 -96 0
-92 93 -94 -95 96 0
-92 -93 94 95 -96 0
-92 -93 94 -95 96 0
-92 -93 -94 95 96 0
-92 -93 -94 -95 -96 0
42 77 97 98 -99 0
42 77 97 -98 99 0
42 77 -97 98 99 0
42 77 -97 -98 -99 0
42 -77 97 98 99 0
42 -77 97 -98 -99 0
42 -77 -97 98 -99 0
42 -77 -97 -98 99 0
-42 77 97 98 99 0
-42 77 97 -98 -99 0
-42 77 -97 98 -99 0
-42 77 -97 -98 99 0
-42 -77 97 98 -99 0
-42 -77 97 -98 99 0
-42 -77 -97 98 99 0
-42 -77 -97 -98 -99 0
72 100 101 102 103 0
72 100 101 -102 -103 0
72 100 -101 102 -103 0
72 100 -101 -102 103 0
72 -100 101 102 -103 0
72 -100 101 -102 103 0
72 -100 -101 102 103 0
72 -100 -101 -102 -103 0
-72 100 101 102 -103 0
-72 100 101 -102 103 0
-72 100 -101 102 103 0
-72 100 -101 -102 -103 0
-72 -100 101 102 103 0
-72 -100 101 -102 -103 0
-72 -100 -101 102 -103 0
-72 -100 -101 -102 103 0
7 104 105 106 107 0
7 104 105 -106 -107 0
7 104 -105 106 -107 0
7 104 -105 -106 107 0
7 -104 105 106 -107 0
7 -104 105 -106 107 0
7 -104 -105 106 107 0
7 -104 -105 -106 -107 0
-7 104 105 106 -107 0
-7 104 105 -106 107 0
-7 104 -105 106 107 0
-7 104 -105 -106 -107 0
-7 -104 105 106 107 0
-7 -104 105 -106 -107 0
-7 -104 -105 106 -107 0
-7 -104 -105 -106 107 0
51 81 108 109 -110 0
51 81 108 -109 110 0
51 81 -108 109 110 0
51 81 -108 -109 -110 0
51 -81 108 109 110 0
51 -81 108 -109 -110 0
51 -81 -108 109 -110 0
51 -81 -108 -109 110 0
-51 81 108 109 110 0
-51 81 108 -109 -110 0
-51 81 -108 109 -110 0
-51 81 -108 -109 110 0
-51 -81 108 109 -110 0
-51 -81 108 -109 110 0
-51 -81 -108 109 110 0
-51 -81 -108 -109 -110 0
111 112 113 114 115 0
111 112 113 -114 -115 0
111 112 -113 114 -115 0
111 112 -113 -114 115 0
111 -112 113 114 -115 0
111 -112 113 -114 115 0
111 -112 -113 114 115 0
111 -112 -113 -114 -115 0
-111 112 113 114 -115 0
-111 112 113 -114 115 0
-111 112 -113 114 115 0
-111 112 -113 -114 -115 0
-111 -112 113 114 115 0
-111 -112 113 -114 -115 0
-111 -112 -113 114 -115 0
-111 -112 -113 -114 115 0
33 78 116 117 -118 0
33 78 116 -117 118 0
33 78 -116 117 118 0
33 78 -116 -117 -118 0
33 -78 116 117 118 0
33 -78 116 -117 -118 0
33 -78 -116 117 -118 0
33 -78 -116 -117 118 0
-33 78 116 117 118 0
-33 78 116 -117 -118 0
-33 78 -116 117 -118 0
-33 78 -116 -117 118 0
-33 -78 116 117 -118 0
-33 -78 116 -117 118 0
-33 -78 -116 117 118 0
-33 -78 -116 -117 -118 0
36 64 83 87 119 0
36 64 83 -87 -119 0
36 64 -83 87 -119 0
36 64 -83 -87 119 0
36 -64 83 87 -119 0
36 -64 83 -87 119 0
36 -64 -83 87 119 0
36 -64 -83 -87 -119 0
-36 64 83 87 -119 0
-36 64 83 -87 119 0
-36 64 -83 87 119 0
-36 64 -83 -87 -119 0
-36 -64 83 87 119 0
-36 -64 83 -87 -119 0
-36 -64 -83 87 -119 0
-36 -64 -83 -87 119 0
60 92 120 121 122 0
60 92 120 -121 -122 0
60 92 -120 121 -122 0
60 92 -120 -121 122 0
60 -92 120 121 -122 0
60 -92 120 -121 122 0
60 -92 -120 121 122 0
60 -92 -120 -121 -122 0
-60 92 120 121 -122 0
-60 92 120 -121 122 0
-60 92 -120 121 122 0
-60 92 -120 -121 -122 0
-60 -92 120 121 122 0
-60 -92 120 -121 -122 0
-60 -92 -120 121 -122 0
-60 -92 -120 -121 122 0
123 124 125 126 127 0
123 124 125 -126 -127 0
123 124 -125 126 -127 0
123 124 -125 -126 127 0
123 -124 125 126 -127 0
123 -124 125 -126 127 0
123 -124 -125 126 127 0
123 -124 -125 -126 -127 0
-123 124 125 126 -127 0
-123 124 125 -126 127 0
-123 124 -125 126 127 0
-123 124 -125 -126 -127 0
-123 -124 125 126 127 0
-123 -124 125 -126 -127 0
-123 -124 -125 126 -127 0
-123 -124 -125 -126 127 0
73 111 128 129 130 0
73 111 128 -129 -130 0
73 111 -128 129 -130 0
73 111 -128 -129 130 0
73 -111 128 129 -130 0
73 -111 128 -129 130 0
73 -111 -128 129 130 0
73 -111 -128 -129 -130 0
-73 111 128 129 -130 0
-73 111 128 -129 130 0
-73 111 -128 129 130 0
-73 111 -128 -129 -130 0
-73 -111 128 129 130 0
-73 -111 128 -129 -130 0
-73 -111 -128 129 -130 0
-73 -111 -128 -129 130 0
123 131 132 133 134 0
123 131 132 -133 -134 0
123 131 -132 133 -134 0
123 131 -132 -133 134 0
123 -131 132 133 -134 0
123 -131 132 -133 134 0
123 -131 -132 133 134 0
123 -131 -132 -133 -134 0
-123 131 132 133 -134 0
-123 131 132 -133 134 0
-123 131 -132 133 134 0
-123 131 -132 -133 -134 0
-123 -131 132 133 134 0
-123 -131 132 -133 -134 0
-123 -131 -132 133 -134 0
-123 -131 -132 -133 134 0
34 93 116 135 136 0
34 93 116 -135 -136 0
34 93 -116 135 -136 0
34 93 -116 -135 136 0
34 -93 116 135 -136 0
34 -93 116 -135 136 0
34 -93 -116 135 136 0
34 -93 -116 -135 -136 0
-34 93 116 135 -136 0
-34 93 116 -135 136 0
-34 93 -116 135 136 0
-34 93 -116 -135 -136 0
-34 -93 116 135 136 0
-34 -93 116 -135 -136 0
-34 -93 -116 135 -136 0
-34 -93 -116 -135 136 0
18 23 79 137 138 0
18 23 79 -137 -138 0
18 23 -79 137 -138 0
18 23 -79 -137 138 0
18 -23 79 137 -138 0
18 -23 79 -137 138 0
18 -23 -79 137 138 0
18 -23 -79 -137 -138 0
-18 23 79 137 -138 0
-18 23 79 -137 138 0
-18 23 -79 137 138 0
-18 23 -79 -137 -138 0
-18 -23 79 137 138 0
-18 -23 79 -137 -138 0
-18 -23 -79 137 -138 0
-18 -23 -79 -137 138 0
94 124 139 140 -141 0
94 124 139 -140 141 0
94 124 -139 140 141 0
94 124 -139 -140 -141 0
94 -124 139 140 141 0
94 -124 139 -140 -141 0
94 -124 -139 140 -141 0
94 -124 -139 -140 141 0
-94 124 139 140 141 0
-94 124 139 -140 -141 0
-94 124 -139 140 -141 0
-94 124 -139 -140 141 0
-94 -124 139 140 -141 0
-94 -124 139 -140 141 0
-94 -124 -139 140 141 0
-94 -124 -139 -140 -141 0
55 97 100 142 143 0
55 97 100 -142 -143 0
55 97 -100 142 -143 0
55 97 -100 -142 143 0
55 -97 100 142 -143 0
55 -97 100 -142 143 0
55 -97 -100 142 143 0
55 -97 -100 -142 -143 0
-55 97 100 142 -143 0
-55 97 100 -142 143 0
-55 97 -100 142 143 0
-55 97 -100 -142 -143 0
-55 -97 100 142 143 0
-55 -97 100 -142 -143 0
-55 -97 -100 142 -143 0
-55 -97 -100 -142 143 0
144 145 146 147 -148 0
144 145 146 -147 148 0
144 145 -146 147 148 0
144 145 -146 -147 -148 0
144 -145 146 147 148 0
144 -145 146 -147 -148 0
144 -145 -146 147 -148 0
144 -145 -146 -147 148 0
-144 145 146 147 148 0
-144 145 146 -147 -148 0
-144 145 -146 147 -148 0
-144 145 -146 -147 148 0
-144 -145 146 147 -148 0
-144 -145 146 -147 148 0
-144 -145 -146 147 148 0
-144 -145 -146 -147 -148 0
28 80 101 112 149 0
28 80 101 -112 -149 0
28 80 -101 112 -149 0
28 80 -101 -112 149 0
28 -80 101 112 -149 0
28 -80 101 -112 149 0
28 -80 -101 112 149 0
28 -80 -101 -112 -149 0
-28 80 101 112 -149 0
-28 80 101 -112 149 0
-28 80 -101 112 149 0
-28 80 -101 -112 -149 0
-28 -80 101 112 149 0
-28 -80 101 -112 -149 0
-28 -80 -101 112 -149 0
-28 -80 -101 -112 149 0
56 84 95 144 -150 0
56 84 95 -144 150 0
56 84 -95 144 150 0
56 84 -95 -144 -150 0
56 -84 95 144 150 0
56 -84 95 -144 -150 0
56 -84 -95 144 -150 0
56 -84 -95 -144 150 0
-56 84 95 144 150 0
-56 84 95 -144 -150 0
-56 84 -95 144 -150 0
-56 84 -95 -144 150 0
-56 -84 95 144 -150 0
-56 -84 95 -144 150 0
-56 -84 -95 144 150 0
-56 -84 -95 -144 -150 0
57 88 108 131 151 0
57 88 108 -131 -151 0
57 88 -108 131 -151 0
57 88 -108 -131 151 0
57 -88 108 131 -151 0
57 -88 108 -131 151 0
57 -88 -108 131 151 0
57 -88 -108 -131 -151 0
-57 88 108 131 -151 0
-57 88 108 -131 151 0
-57 88 -108 131 151 0
-57 88 -108 -131 -151 0
-57 -88 108 131 151 0
-57 -88 108 -131 -151 0
-57 -88 -108 131 -151 0
-57 -88 -108 -131 151 0
145 152 153 154 155 0
145 152 153 -154 -155 0
145 152 -153 154 -155 0
145 152 -153 -154 155 0
145 -152 153 154 -155 0
145 -152 153 -154 155 0
145 -152 -153 154 155 0
145 -152 -153 -154 -155 0
-145 152 153 154 -155 0
-145 152 153 -154 155 0
-145 152 -153 154 155 0
-145 152 -153 -154 -155 0
-145 -152 153 154 155 0
-145 -152 153 -154 -155 0
-145 -152 -153 154 -155 0
-145 -152 -153 -154 155 0
37 135 156 157 -158 0
37 135 156 -157 158 0
37 135 -156 157 158 0
37 135 -156 -157 -158 0
37 -135 156 157 158 0
37 -135 156 -157 -158 0
37 -135 -156 157 -158 0
37 -135 -156 -157 158 0
-37 135 156 157 158 0
-37 135 156 -157 -158 0
-37 135 -156 157 -158 0
-37 135 -156 -157 158 0
-37 -135 156 157 -158 0
-37 -135 156 -157 158 0
-37 -135 -156 157 158 0
-37 -135 -156 -157 -158 0
139 159 160 161 162 0
139 159 160 -161 -162 0
139 159 -160 161 -162 0
139 159 -160 -161 162 0
139 -159 160 161 -162 0
139 -159 160 -161 162 0
139 -159 -160 161 162 0
139 -159 -160 -161 -162 0
-139 159 160 161 -162 0
-139 159 160 -161 162 0
-139 159 -160 161 162 0
-139 159 -160 -161 -162 0
-139 -159 160 161 162 0
-139 -159 160 -161 -162 0
-139 -159 -160 161 -162 0
-139 -159 -160 -161 162 0
46 150 163 164 165 0
46 150 163 -164 -165 0
46 150 -163 164 -165 0
46 150 -163 -164 165 0
46 -150 163 164 -165 0
46 -150 163 -164 165 0
46 -150 -163 164 165 0
46 -150 -163 -164 -165 0
-46 150 163 164 -165 0
-46 150 163 -164 165 0
-46 150 -163 164 165 0
-46 150 -163 -164 -165 0
-46 -150 163 164 165 0
-46 -150 163 -164 -165 0
-46 -150 -163 164 -165 0
-46 -150 -163 -164 165 0
65 125 166 167 -168 0
65 125 166 -167 168 0
65 125 -166 167 168 0
65 125 -166 -167 -168 0
65 -125 166 167 168 0
65 -125 166 -167 -168 0
65 -125 -166 167 -168 0
65 -125 -166 -167 168 0
-65 125 166 167 168 0
-65 125 166 -167 -168 0
-65 125 -166 167 -168 0
-65 125 -166 -167 168 0
-65 -125 166 167 -168 0
-65 -125 166 -167 168 0
-65 -125 -166 167 168 0
-65 -125 -166 -167 -168 0
98 109 169 170 171 0
98 109 169 -170 -171 0
98 109 -169 170 -171 0
98 109 -169 -170 171 0
98 -109 169 170 -171 0
98 -109 169 -170 171 0
98 -109 -169 170 171 0
98 -109 -169 -170 -171 0
-98 109 169 170 -171 0
-98 109 169 -170 171 0
-98 109 -169 170 171 0
-98 109 -169 -170 -171 0
-98 -109 169 170 171 0
-98 -109 169 -170 -171 0
-98 -109 -169 170 -171 0
-98 -109 -169 -170 171 0
47 89 96 172 -173 0
47 89 96 -172 173 0
47 89 -96 172 173 0
47 89 -96 -172 -173 0
47 -89 96 172 173 0
47 -89 96 -172 -173 0
47 -89 -96 172 -173 0
47 -89 -96 -172 173 0
-47 89 96 172 173 0
-47 89 96 -172 -173 0
-47 89 -96 172 -173 0
-47 89 -96 -172 173 0
-47 -89 96 172 -173 0
-47 -89 96 -172 173 0
-47 -89 -96 172 173 0
-47 -89 -96 -172 -173 0
68 113 136 174 -175 0
68 113 136 -174 175 0
68 113 -136 174 175 0
68 113 -136 -174 -175 0
68 -113 136 174 175 0
68 -113 136 -174 -175 0
68 -113 -136 174 -175 0
68 -113 -136 -174 175 0
-68 113 136 174 175 0
-68 113 136 -174 -175 0
-68 113 -136 174 -175 0
-68 113 -136 -174 175 0
-68 -113 136 174 -175 0
-68 -113 136 -174 175 0
-68 -113 -136 174 175 0
-68 -113 -136 -174 -175 0
90 163 176 177 178 0
90 163 176 -177 -178 0
90 163 -176 177 -178 0
90 163 -176 -177 178 0
90 -163 176 177 -178 0
90 -163 176 -177 178 0
90 -163 -176 177 178 0
90 -163 -176 -177 -178 0
-90 163 176 177 -178 0
-90 163 176 -177 178 0
-90 163 -176 177 178 0
-90 163 -176 -177 -178 0
-90 -163 176 177 178 0
-90 -163 176 -177 -178 0
-90 -163 -176 177 -178 0
-90 -163 -176 -177 178 0
38 164 176 179 -180 0
38 164 176 -179 180 0
38 164 -176 179 180 0
38 164 -176 -179 -180 0
38 -164 176 179 180 0
38 -164 176 -179 -180 0
38 -164 -176 179 -180 0
38 -164 -176 -179 180 0
-38 164 176 179 180 0
-38 164 176 -179 -180 0
-38 164 -176 179 -180 0
-38 164 -176 -179 180 0
-38 -164 176 179 -180 0
-38 -164 176 -179 180 0
-38 -164 -176 179 180 0
-38 -164 -176 -179 -180 0
2 43 119 120 159 0
2 43 119 -120 -159 0
2 43 -119 120 -159 0
2 43 -119 -120 159 0
2 -43 119 120 -159 0
2 -43 119 -120 159 0
2 -43 -119 120 159 0
2 -43 -119 -120 -159 0
-2 43 119 120 -159 0
-2 43 119 -120 159 0
-2 43 -119 120 159 0
-2 43 -119 -120 -159 0
-2 -43 119 120 159 0
-2 -43 119 -120 -159 0
-2 -43 -119 120 -159 0
-2 -43 -119 -120 159 0
24 160 181 182 183 0
24 160 181 -182 -183 0
24 160 -181 182 -183 0
24 160 -181 -182 183 0
24 -160 181 182 -183 0
24 -160 181 -182 183 0
24 -160 -181 182 183 0
24 -160 -181 -182 -183 0
-24 160 181 182 -183 0
-24 160 181 -182 183 0
-24 160 -181 182 183 0
-24 160 -181 -182 -183 0
-24 -160 181 182 183 0
-24 -160 181 -182 -183 0
-24 -160 -181 182 -183 0
-24 -160 -181 -182 183 0
19 52 152 181 184 0
19 52 152 -181 -184 0
19 52 -152 181 -184 0
19 52 -152 -181 184 0
19 -52 152 181 -184 0
19 -52 152 -181 184 0
19 -52 -152 181 184 0
19 -52 -152 -181 -184 0
-19 52 152 181 -184 0
-19 52 152 -181 184 0
-19 52 -152 181 184 0
-19 52 -152 -181 -184 0
-19 -52 152 181 184 0
-19 -52 152 -181 -184 0
-19 -52 -152 181 -184 0
-19 -52 -152 -181 184 0
29 126 137 146 -179 0
29 126 137 -146 179 0
29 126 -137 146 179 0
29 126 -137 -146 -179 0
29 -126 137 146 179 0
29 -126 137 -146 -179 0
29 -126 -137 146 -179 0
29 -126 -137 -146 179 0
-29 126 137 146 179 0
-29 126 137 -146 -179 0
-29 126 -137 146 -179 0
-29 126 -137 -146 179 0
-29 -126 137 146 -179 0
-29 -126 137 -146 179 0
-29 -126 -137 146 179 0
-29 -126 -137 -146 -179 0
48 53 58 102 -185 0
48 53 58 -102 185 0
48 53 -58 102 185 0
48 53 -58 -102 -185 0
48 -53 58 102 185 0
48 -53 58 -102 -185 0
48 -53 -58 102 -185 0
48 -53 -58 -102 185 0
-48 53 58 102 185 0
-48 53 58 -102 -185 0
-48 53 -58 102 -185 0
-48 53 -58 -102 185 0
-48 -53 58 102 -185 0
-48 -53 58 -102 185 0
-48 -53 -58 102 185 0
-48 -53 -58 -102 -185 0
132 156 169 186 -187 0
132 156 169 -186 187 0
132 156 -169 186 187 0
132 156 -169 -186 -187 0
132 -156 169 186 187 0
132 -156 169 -186 -187 0
132 -156 -169 186 -187 0
132 -156 -169 -186 187 0
-132 156 169 186 187 0
-132 156 169 -186 -187 0
-132 156 -169 186 -187 0
-132 156 -169 -186 187 0
-132 -156 169 186 -187 0
-132 -156 169 -186 187 0
-132 -156 -169 186 187 0
-132 -156 -169 -186 -187 0
8 30 133 153 184 0
8 30 133 -153 -184 0
8 30 -133 153 -184 0
8 30 -133 -153 184 0
8 -30 133 153 -184 0
8 -30 133 -153 184 0
8 -30 -133 153 184 0
8 -30 -133 -153 -184 0
-8 30 133 153 -184 0
-8 30 133 -153 184 0
-8 30 -133 153 184 0
-8 30 -133 -153 -184 0
-8 -30 133 153 184 0
-8 -30 133 -153 -184 0
-8 -30 -133 153 -184 0
-8 -30 -133 -153 184 0
3 69 128 142 -188 0
3 69 128 -142 188 0
3 69 -128 142 188 0
3 69 -128 -142 -188 0
3 -69 128 142 188 0
3 -69 128 -142 -188 0
3 -69 -128 142 -188 0
3 -69 -128 -142 188 0
-3 69 128 142 188 0
-3 69 128 -142 -188 0
-3 69 -128 142 -188 0
-3 69 -128 -142 188 0
-3 -69 128 142 -188 0
-3 -69 128 -142 188 0
-3 -69 -128 142 188 0
-3 -69 -128 -142 -188 0
49 74 82 180 -189 0
49 74 82 -180 189 0
49 74 -82 180 189 0
49 74 -82 -180 -189 0
49 -74 82 180 189 0
49 -74 82 -180 -189 0
49 -74 -82 180 -189 0
49 -74 -82 -180 189 0
-49 74 82 180 189 0
-49 74 82 -180 -189 0
-49 74 -82 180 -189 0
-49 74 -82 -180 189 0
-49 -74 82 180 -189 0
-49 -74 82 -180 189 0
-49 -74 -82 180 189 0
-49 -74 -82 -180 -189 0
91 140 154 170 -185 0
91 140 154 -170 185 0
91 140 -154 170 185 0
91 140 -154 -170 -185 0
91 -140 154 170 185 0
91 -140 154 -170 -185 0
91 -140 -154 170 -185 0
91 -140 -154 -170 185 0
-91 140 154 170 185 0
-91 140 154 -170 -185 0
-91 140 -154 170 -185 0
-91 140 -154 -170 185 0
-91 -140 154 170 -185 0
-91 -140 154 -170 185 0
-91 -140 -154 170 185 0
-91 -140 -154 -170 -185 0
70 114 121 141 -189 0
70 114 121 -141 189 0
70 114 -121 141 189 0
70 114 -121 -141 -189 0
70 -114 121 141 189 0
70 -114 121 -141 -189 0
70 -114 -121 141 -189 0
70 -114 -121 -141 189 0
-70 114 121 141 189 0
-70 114 121 -141 -189 0
-70 114 -121 141 -189 0
-70 114 -121 -141 189 0
-70 -114 121 141 -189 0
-70 -114 121 -141 189 0
-70 -114 -121 141 189 0
-70 -114 -121 -141 -189 0
104 151 172 190 -191 0
104 151 172 -190 191 0
104 151 -172 190 191 0
104 151 -172 -190 -191 0
104 -151 172 190 191 0
104 -151 172 -190 -191 0
104 -151 -172 190 -191 0
104 -151 -172 -190 191 0
-104 151 172 190 191 0
-104 151 172 -190 -191 0
-104 151 -172 190 -191 0
-104 151 -172 -190 191 0
-104 -151 172 190 -191 0
-104 -151 172 -190 191 0
-104 -151 -172 190 191 0
-104 -151 -172 -190 -191 0
61 166 182 188 -192 0
61 166 182 -188 192 0
61 166 -182 188 192 0
61 166 -182 -188 -192 0
61 -166 182 188 192 0
61 -166 182 -188 -192 0
61 -166 -182 188 -192 0
61 -166 -182 -188 192 0
-61 166 182 188 192 0
-61 166 182 -188 -192 0
-61 166 -182 188 -192 0
-61 166 -182 -188 192 0
-61 -166 182 188 -192 0
-61 -166 182 -188 192 0
-61 -166 -182 188 192 0
-61 -166 -182 -188 -192 0
66 105 155 193 194 0
66 105 155 -193 -194 0
66 105 -155 193 -194 0
66 105 -155 -193 194 0
66 -105 155 193 -194 0
66 -105 155 -193 194 0
66 -105 -155 193 194 0
66 -105 -155 -193 -194 0
-66 105 155 193 -194 0
-66 105 155 -193 194 0
-66 105 -155 193 194 0
-66 105 -155 -193 -194 0
-66 -105 155 193 194 0
-66 -105 155 -193 -194 0
-66 -105 -155 193 -194 0
-66 -105 -155 -193 194 0
62 138 174 186 -195 0
62 138 174 -186 195 0
62 138 -174 186 195 0
62 138 -174 -186 -195 0
62 -138 174 186 195 0
62 -138 174 -186 -195 0
62 -138 -174 186 -195 0
62 -138 -174 -186 195 0
-62 138 174 186 195 0
-62 138 174 -186 -195 0
-62 138 -174 186 -195 0
-62 138 -174 -186 195 0
-62 -138 174 186 -195 0
-62 -138 174 -186 195 0
-62 -138 -174 186 195 0
-62 -138 -174 -186 -195 0
54 122 149 161 -196 0
54 122 149 -161 196 0
54 122 -149 161 196 0
54 122 -149 -161 -196 0
54 -122 149 161 196 0
54 -122 149 -161 -196 0
54 -122 -149 161 -196 0
54 -122 -149 -161 196 0
-54 122 149 161 196 0
-54 122 149 -161 -196 0
-54 122 -149 161 -196 0
-54 122 -149 -161 196 0
-54 -122 149 161 -196 0
-54 -122 149 -161 196 0
-54 -122 -149 161 196 0
-54 -122 -149 -161 -196 0
63 99 106 157 173 0
63 99 106 -157 -173 0
63 99 -106 157 -173 0
63 99 -106 -157 173 0
63 -99 106 157 -173 0
63 -99 106 -157 173 0
63 -99 -106 157 173 0
63 -99 -106 -157 -173 0
-63 99 106 157 -173 0
-63 99 106 -157 173 0
-63 99 -106 157 173 0
-63 99 -106 -157 -173 0
-63 -99 106 157 173 0
-63 -99 106 -157 -173 0
-63 -99 -106 157 -173 0
-63 -99 -106 -157 173 0
4 85 117 147 197 0
4 85 117 -147 -197 0
4 85 -117 147 -197 0
4 85 -117 -147 197 0
4 -85 117 147 -197 0
4 -85 117 -147 197 0
4 -85 -117 147 197 0
4 -85 -117 -147 -197 0
-4 85 117 147 -197 0
-4 85 117 -147 197 0
-4 85 -117 147 197 0
-4 85 -117 -147 -197 0
-4 -85 117 147 197 0
-4 -85 117 -147 -197 0
-4 -85 -117 147 -197 0
-4 -85 -117 -147 197 0
13 115 162 177 -195 0
13 115 162 -177 195 0
13 115 -162 177 195 0
13 115 -162 -177 -195 0
13 -115 162 177 195 0
13 -115 162 -177 -195 0
13 -115 -162 177 -195 0
13 -115 -162 -177 195 0
-13 115 162 177 195 0
-13 115 162 -177 -195 0
-13 115 -162 177 -195 0
-13 115 -162 -177 195 0
-13 -115 162 177 -195 0
-13 -115 162 -177 195 0
-13 -115 -162 177 195 0
-13 -115 -162 -177 -195 0
25 167 183 190 198 0
25 167 183 -190 -198 0
25 167 -183 190 -198 0
25 167 -183 -190 198 0
25 -167 183 190 -198 0
25 -167 183 -190 198 0
25 -167 -183 190 198 0
25 -167 -183 -190 -198 0
-25 167 183 190 -198 0
-25 167 183 -190 198 0
-25 167 -183 190 198 0
-25 167 -183 -190 -198 0
-25 -167 183 190 198 0
-25 -167 183 -190 -198 0
-25 -167 -183 190 -198 0
-25 -167 -183 -190 198 0
9 39 50 134 198 0
9 39 50 -134 -198 0
9 39 -50 134 -198 0
9 39 -50 -134 198 0
9 -39 50 134 -198 0
9 -39 50 -134 198 0
9 -39 -50 134 198 0
9 -39 -50 -134 -198 0
-9 39 50 134 -198 0
-9 39 50 -134 198 0
-9 39 -50 134 198 0
-9 39 -50 -134 -198 0
-9 -39 50 134 198 0
-9 -39 50 -134 -198 0
-9 -39 -50 134 -198 0
-9 -39 -50 -134 198 0
5 67 71 86 -178 0
5 67 71 -86 178 0
5 67 -71 86 178 0
5 67 -71 -86 -178 0
5 -67 71 86 178 0
5 -67 71 -86 -178 0
5 -67 -71 86 -178 0
5 -67 -71 -86 178 0
-5 67 71 86 178 0
-5 67 71 -86 -178 0
-5 67 -71 86 -178 0
-5 67 -71 -86 178 0
-5 -67 71 86 -178 0
-5 -67 71 -86 178 0
-5 -67 -71 86 178 0
-5 -67 -71 -86 -178 0
14 143 168 191 199 0
14 143 168 -191 -199 0
14 143 -168 191 -199 0
14 143 -168 -191 199 0
14 -143 168 191 -199 0
14 -143 168 -191 199 0
14 -143 -168 191 199 0
14 -143 -168 -191 -199 0
-14 143 168 191 -199 0
-14 143 168 -191 199 0
-14 143 -168 191 199 0
-14 143 -168 -191 -199 0
-14 -143 168 191 199 0
-14 -143 168 -191 -199 0
-14 -143 -168 191 -199 0
-14 -143 -168 -191 199 0
15 148 193 196 -200 0
15 148 193 -196 200 0
15 148 -193 196 200 0
15 148 -193 -196 -200 0
15 -148 193 196 200 0
15 -148 193 -196 -200 0
15 -148 -193 196 -200 0
15 -148 -193 -196 200 0
-15 148 193 196 200 0
-15 148 193 -196 -200 0
-15 148 -193 196 -200 0
-15 148 -193 -196 200 0
-15 -148 193 196 -200 0
-15 -148 193 -196 200 0
-15 -148 -193 196 200 0
-15 -148 -193 -196 -200 0
20 110 171 194 199 0
20 110 171 -194 -199 0
20 110 -171 194 -199 0
20 110 -171 -194 199 0
20 -110 171 194 -199 0
20 -110 171 -194 199 0
20 -110 -171 194 199 0
20 -110 -171 -194 -199 0
-20 110 171 194 -199 0
-20 110 171 -194 199 0
-20 110 -171 194 199 0
-20 110 -171 -194 -199 0
-20 -110 171 194 199 0
-20 -110 171 -194 -199 0
-20 -110 -171 194 -199 0
-20 -110 -171 -194 199 0
10 75 107 118 -200 0
10 75 107 -118 200 0
10 75 -107 118 200 0
10 75 -107 -118 -200 0
10 -75 107 118 200 0
10 -75 107 -118 -200 0
10 -75 -107 118 -200 0
10 -75 -107 -118 200 0
-10 75 107 118 200 0
-10 75 107 -118 -200 0
-10 75 -107 118 -200 0
-10 75 -107 -118 200 0
-10 -75 107 118 -200 0
-10 -75 107 -118 200 0
-10 -75 -107 118 200 0
-10 -75 -107 -118 -200 0
103 127 129 165 192 0
103 127 129 -165 -192 0
103 127 -129 165 -192 0
103 127 -129 -165 192 0
103 -127 129 165 -192 0
103 -127 129 -165 192 0
103 -127 -129 165 192 0
103 -127 -129 -165 -192 0
-103 127 129 165 -192 0
-103 127 129 -165 192 0
-103 127 -129 165 192 0
-103 127 -129 -165 -192 0
-103 -127 129 165 192 0
-103 -127 129 -165 -192 0
-103 -127 -129 165 -192 0
-103 -127 -129 -165 192 0
130 158 175 187 -197 0
130 158 175 -187 197 0
130 158 -175 187 197 0
130 158 -175 -187 -197 0
130 -158 175 187 197 0
130 -158 175 -187 -197 0
130 -158 -175 187 -197 0
130 -158 -175 -187 197 0
-130 158 175 187 197 0
-130 158 175 -187 -197 0
-130 158 -175 187 -197 0
-130 158 -175 -187 197 0
-130 -158 175 187 -197 0
-130 -158 175 -187 197 0
-130 -158 -175 187 197 0
-130 -158 -175 -187 -197 0
